Optimal - objective value 2004.00000000
      4 x(4)                   1         207.833333333333
     15 x(15)                  1                      24
     23 x(23)                  1                       0
     42 x(42)                  1                       0
    110 x(110)                 1                       0
    120 x(120)                 1                       0
    123 x(123)                 1         6.49999999999999
    161 x(161)                 1                       0
    171 x(171)                 1                       0
    180 x(180)                 1                      23
    185 x(185)                 1                       0
    189 x(189)                 1         -67.3333333333334
    203 x(203)                 1                       0
    210 x(210)                 1                       0
    225 x(225)                 1         28.3333333333333
    226 x(226)                 1                       0
    243 x(243)                 1                       0
    250 x(250)                 1         14.1666666666666
    251 x(251)                 1         174.833333333333
    275 x(275)                 1                       0
    276 x(276)                 1                       0
    279 x(279)                 1                       0
